9021
1 1 0 1 0 1 1 1 1 0 1 0 1 1 1 1 0 0 0 0 
15 6 15 10 12 13 5 5 15 1 5 3 6 13 6 13 12 5 5 15 0 0 10 14 14 14 1 3 3 7 1 1 15 15 15 5 13 13 10 0 0 13 13 13 12 5 5 5 5 15 15 5 0 14 14 10 6 6 13 12 13 5 1 5 15 15 10 3 7 7 15 0 0 0 10 3 3 15 15 3 15 5 12 12 13 13 6 8 12 1 13 13 13 6 6 13 6 12 12 6 
